p cnf 586 361
1 -3 0
2 -3 0
-1 -2 3 0
1 -5 0
4 -5 0
-1 -4 5 0
-10 -76 0
10 76 0
-11 -77 0
11 77 0
76 78 0
77 78 0
-76 -77 -78 0
-1 78 -79 0
1 -78 -79 0
-1 -78 79 0
1 78 79 0
-79 0
-80 -81 0
80 81 0
-2 81 -82 0
2 -81 -82 0
-2 -81 82 0
2 81 82 0
-82 0
8 -83 0
9 -83 0
-8 -9 83 0
-8 -9 -84 0
8 9 -84 0
-8 9 84 0
8 -9 84 0
7 -85 0
83 -85 0
-7 -83 85 0
-7 -83 -86 0
7 83 -86 0
-7 83 86 0
7 -83 86 0
6 -87 0
85 -87 0
-6 -85 87 0
-6 -85 -88 0
6 85 -88 0
-6 85 88 0
6 -85 88 0
1 -89 0
-2 -89 0
-1 2 89 0
-89 -90 0
80 -90 0
-80 89 90 0
9 89 91 0
-9 89 -91 0
-9 -89 91 0
9 -89 -91 0
-84 89 92 0
84 89 -92 0
-8 -89 92 0
8 -89 -92 0
-86 89 93 0
86 89 -93 0
-7 -89 93 0
7 -89 -93 0
-88 89 94 0
88 89 -94 0
-6 -89 94 0
6 -89 -94 0
-89 -95 0
87 -95 0
-87 89 95 0
-96 -97 0
96 97 0
-4 97 -98 0
4 -97 -98 0
-4 -97 98 0
4 97 98 0
-98 0
92 -99 0
91 -99 0
-91 -92 99 0
-91 -92 -100 0
91 92 -100 0
91 -92 100 0
-91 92 100 0
93 -101 0
99 -101 0
-93 -99 101 0
-93 -99 -102 0
93 99 -102 0
-93 99 102 0
93 -99 102 0
94 -103 0
101 -103 0
-94 -101 103 0
-94 -101 -104 0
94 101 -104 0
-94 101 104 0
94 -101 104 0
95 -105 0
103 -105 0
-95 -103 105 0
-95 -103 -106 0
95 103 -106 0
-95 103 106 0
95 -103 106 0
1 -107 0
-4 -107 0
-1 4 107 0
91 107 108 0
-91 107 -108 0
-91 -107 108 0
91 -107 -108 0
-100 107 109 0
100 107 -109 0
-92 -107 109 0
92 -107 -109 0
-102 107 110 0
102 107 -110 0
-93 -107 110 0
93 -107 -110 0
-104 107 111 0
104 107 -111 0
-94 -107 111 0
94 -107 -111 0
-106 107 112 0
106 107 -112 0
-95 -107 112 0
95 -107 -112 0
-107 -113 0
105 -113 0
-105 107 113 0
-107 -114 0
96 -114 0
-96 107 114 0
1 -10 115 0
1 10 -115 0
-1 -90 115 0
-1 90 -115 0
1 -9 116 0
1 9 -116 0
-1 -108 116 0
-1 108 -116 0
1 -8 117 0
1 8 -117 0
-1 -109 117 0
-1 109 -117 0
1 -7 118 0
1 7 -118 0
-1 -110 118 0
-1 110 -118 0
1 -6 119 0
1 6 -119 0
-1 -111 119 0
-1 111 -119 0
1 -120 0
112 -120 0
-1 -112 120 0
1 -121 0
113 -121 0
-1 -113 121 0
1 -11 122 0
1 11 -122 0
-1 -114 122 0
-1 114 -122 0
9 -467 0
-9 467 0
8 -468 0
-8 468 0
7 -469 0
-7 469 0
6 -470 0
-6 470 0
-471 0
-472 0
-473 0
-474 0
10 -475 0
-10 475 0
-476 0
-477 0
-478 0
-479 0
-480 0
-481 0
-482 0
11 -483 0
-11 483 0
-484 0
-485 0
-486 0
-487 0
-488 0
-489 0
-490 0
12 -491 0
-12 491 0
13 -492 0
-13 492 0
14 -493 0
-14 493 0
15 -494 0
-15 494 0
16 -495 0
-16 495 0
17 -496 0
-17 496 0
18 -497 0
-18 497 0
19 -498 0
-19 498 0
20 -499 0
-20 499 0
21 -500 0
-21 500 0
22 -501 0
-22 501 0
23 -502 0
-23 502 0
24 -503 0
-24 503 0
25 -504 0
-25 504 0
26 -505 0
-26 505 0
27 -506 0
-27 506 0
28 -507 0
-28 507 0
29 -508 0
-29 508 0
30 -509 0
-30 509 0
31 -510 0
-31 510 0
32 -511 0
-32 511 0
33 -512 0
-33 512 0
34 -513 0
-34 513 0
35 -514 0
-35 514 0
36 -515 0
-36 515 0
37 -516 0
-37 516 0
38 -517 0
-38 517 0
39 -518 0
-39 518 0
40 -519 0
-40 519 0
41 -520 0
-41 520 0
42 -521 0
-42 521 0
43 -522 0
-43 522 0
44 -523 0
-44 523 0
45 -524 0
-45 524 0
46 -525 0
-46 525 0
47 -526 0
-47 526 0
48 -527 0
-48 527 0
49 -528 0
-49 528 0
50 -529 0
-50 529 0
51 -530 0
-51 530 0
52 -531 0
-52 531 0
53 -532 0
-53 532 0
54 -533 0
-54 533 0
55 -534 0
-55 534 0
56 -535 0
-56 535 0
57 -536 0
-57 536 0
58 -537 0
-58 537 0
59 -538 0
-59 538 0
60 -539 0
-60 539 0
61 -540 0
-61 540 0
62 -541 0
-62 541 0
63 -542 0
-63 542 0
64 -543 0
-64 543 0
65 -544 0
-65 544 0
66 -545 0
-66 545 0
67 -546 0
-67 546 0
68 -547 0
-68 547 0
69 -548 0
-69 548 0
70 -549 0
-70 549 0
71 -550 0
-71 550 0
72 -551 0
-72 551 0
73 -552 0
-73 552 0
74 -553 0
-74 553 0
75 -554 0
-75 554 0
-121 -560 586 0
-120 -559 586 0
-119 -558 586 0
-118 -557 586 0
-117 -556 586 0
-116 -555 586 0
584 0
583 -584 0
582 -583 0
581 -582 0
580 -581 0
579 -580 0
578 -579 0
577 -578 0
576 -577 0
575 -576 0
574 -575 0
573 -574 0
572 -573 0
571 -572 0
570 -571 0
569 -570 0
568 -569 0
567 -568 0
566 -567 0
565 -566 0
564 -565 0
563 -564 0
562 -563 0
561 -562 0
560 -561 0
121 559 -560 0
120 558 -559 0
119 557 -558 0
118 556 -557 0
117 555 -556 0
116 -555 586 0
-586 0
c goto_symex::\guard#1 1
c goto_symex::\guard#2 2
c goto_symex::\guard#3 4
c symex::args::2 483 484 485 486 487 488 489 490
c symex::args::1 475 476 477 478 479 480 481 482
c Fair::1::result!0@1#1..cb 459 460 461 462 463 464 465 466
c Fair::1::result!0@1#1..count 443 444 445 446 447 448 449 450
c Fair::1::result!0@1#1 419 420 421 422 423 424 425 426 427 428 429 430 431 432 433 434 435 436 437 438 439 440 441 442
c main::$tmp::return_value_Fair!0@1#1..cb 411 412 413 414 415 416 417 418
c main::$tmp::return_value_Fair!0@1#1..ca 403 404 405 406 407 408 409 410
c main::$tmp::return_value_Fair!0@1#1..count 395 396 397 398 399 400 401 402
c main::$tmp::return_value_Fair!0@1#1 371 372 373 374 375 376 377 378 379 380 381 382 383 384 385 386 387 388 389 390 391 392 393 394
c main::1::out!0@1#1..cb 363 364 365 366 367 368 369 370
c main::1::out!0@1#1..ca 355 356 357 358 359 360 361 362
c main::1::out!0@1#1..count 347 348 349 350 351 352 353 354
c main::1::out!0@1#1 323 324 325 326 327 328 329 330 331 332 333 334 335 336 337 338 339 340 341 342 343 344 345 346
c main::$tmp::return_value___VERIFIER_nondet_float$0!0@1#1 291 292 293 294 295 296 297 298 299 300 301 302 303 304 305 306 307 308 309 310 311 312 313 314 315 316 317 318 319 320 321 322
c main::1::p2!0@1#1 259 260 261 262 263 264 265 266 267 268 269 270 271 272 273 274 275 276 277 278 279 280 281 282 283 284 285 286 287 288 289 290
c symex::args::3 491 492 493 494 495 496 497 498 499 500 501 502 503 504 505 506 507 508 509 510 511 512 513 514 515 516 517 518 519 520 521 522
c main::$tmp::return_value___VERIFIER_nondet_float!0@1#1 227 228 229 230 231 232 233 234 235 236 237 238 239 240 241 242 243 244 245 246 247 248 249 250 251 252 253 254 255 256 257 258
c symex::args::0 467 468 469 470 471 472 473 474
c main::1::p1!0@1#1 195 196 197 198 199 200 201 202 203 204 205 206 207 208 209 210 211 212 213 214 215 216 217 218 219 220 221 222 223 224 225 226
c main::$tmp::return_value___VERIFIER_nondet_bool$4!0@1#1 187 188 189 190 191 192 193 194
c main::1::ca!0@1#1 163 164 165 166 167 168 169 170
c Fair::1::result!0@1#1..ca 451 452 453 454 455 456 457 458
c main::$tmp::return_value___VERIFIER_nondet_bool$2!0@1#1 155 156 157 158 159 160 161 162
c main::$tmp::return_value___VERIFIER_nondet_bool$1!0@1#1 147 148 149 150 151 152 153 154
c main::1::out!0@1#2..cb 122 FALSE FALSE FALSE FALSE FALSE FALSE FALSE
c main::$tmp::return_value_Fair!0@1#2..cb 122 FALSE FALSE FALSE FALSE FALSE FALSE FALSE
c main::$tmp::return_value_Fair!0@1#2..ca 115 FALSE FALSE FALSE FALSE FALSE FALSE FALSE
c main::1::ca!0@1#2 10 FALSE FALSE FALSE FALSE FALSE FALSE FALSE
c main::$tmp::return_value_Fair!0@1#2..count 116 117 118 119 120 121 FALSE FALSE
c main::$tmp::return_value___VERIFIER_nondet_bool$3!0@1#2 10 FALSE FALSE FALSE FALSE FALSE FALSE FALSE
c goto_symex::return_value::Fair!0#1..cb 122 FALSE FALSE FALSE FALSE FALSE FALSE FALSE
c goto_symex::return_value::Fair!0#1..count 116 117 118 119 120 121 FALSE FALSE
c Fair::1::result!0@1#2..cb 122 FALSE FALSE FALSE FALSE FALSE FALSE FALSE
c main::1::count!0@1#2 9 8 7 6 FALSE FALSE FALSE FALSE
c Fair::1::result!0@1#2..ca 115 FALSE FALSE FALSE FALSE FALSE FALSE FALSE
c main::$tmp::return_value___VERIFIER_nondet_bool$2!0@1#2 9 FALSE FALSE FALSE FALSE FALSE FALSE FALSE
c Fair::1::result!0@1#2..count 116 117 118 119 120 121 FALSE FALSE
c main::$tmp::return_value___VERIFIER_nondet_bool$0!0@1#2 7 FALSE FALSE FALSE FALSE FALSE FALSE FALSE
c Fair::cb!0@1#5 122 FALSE FALSE FALSE FALSE FALSE FALSE FALSE
c Fair::count!0@1#6 116 117 118 119 120 121 FALSE FALSE
c main::$tmp::return_value___VERIFIER_nondet_bool$0!0@1#1 139 140 141 142 143 144 145 146
c Fair::ca!0@1#5 115 FALSE FALSE FALSE FALSE FALSE FALSE FALSE
c main::$tmp::return_value___VERIFIER_nondet_bool!0@1#1 131 132 133 134 135 136 137 138
c Fair::cb!0@1#2 96 FALSE FALSE FALSE FALSE FALSE FALSE FALSE
c Fair::count!0@1#3 91 92 93 94 95 FALSE FALSE FALSE
c main::1::count!0@1#1 123 124 125 126 127 128 129 130
c Fair::ca!0@1#4 90 FALSE FALSE FALSE FALSE FALSE FALSE FALSE
c Fair::count!0@1#2 -9 84 86 88 87 FALSE FALSE FALSE
c Fair::p2!0@1#1 44 45 46 47 48 49 50 51 52 53 54 55 56 57 58 59 60 61 62 63 64 65 66 67 68 69 70 71 72 73 74 75
c __CPROVER_memory_leak#1 FALSE FALSE FALSE FALSE FALSE FALSE FALSE FALSE FALSE FALSE FALSE FALSE FALSE FALSE FALSE FALSE FALSE FALSE FALSE FALSE FALSE FALSE FALSE FALSE FALSE FALSE FALSE FALSE FALSE FALSE FALSE FALSE FALSE FALSE FALSE FALSE FALSE FALSE FALSE FALSE FALSE FALSE FALSE FALSE FALSE FALSE FALSE FALSE FALSE FALSE FALSE FALSE FALSE FALSE FALSE FALSE FALSE FALSE FALSE FALSE FALSE FALSE FALSE FALSE
c Fair::p1!0@1#1 12 13 14 15 16 17 18 19 20 21 22 23 24 25 26 27 28 29 30 31 32 33 34 35 36 37 38 39 40 41 42 43
c __CPROVER_rounding_mode!0#1 FALSE FALSE FALSE FALSE FALSE FALSE FALSE FALSE FALSE FALSE FALSE FALSE FALSE FALSE FALSE FALSE FALSE FALSE FALSE FALSE FALSE FALSE FALSE FALSE FALSE FALSE FALSE FALSE FALSE FALSE FALSE FALSE
c __CPROVER_max_malloc_size#1 FALSE FALSE FALSE FALSE FALSE FALSE FALSE FALSE FALSE FALSE FALSE FALSE FALSE FALSE FALSE FALSE FALSE FALSE FALSE FALSE FALSE FALSE FALSE FALSE FALSE FALSE FALSE FALSE FALSE FALSE FALSE FALSE FALSE FALSE FALSE FALSE FALSE FALSE FALSE FALSE FALSE FALSE FALSE FALSE FALSE FALSE FALSE FALSE FALSE FALSE FALSE FALSE FALSE FALSE FALSE TRUE FALSE FALSE FALSE FALSE FALSE FALSE FALSE FALSE
c Fair::cb!0@1#1 11 FALSE FALSE FALSE FALSE FALSE FALSE FALSE
c __CPROVER_deallocated#1 FALSE FALSE FALSE FALSE FALSE FALSE FALSE FALSE FALSE FALSE FALSE FALSE FALSE FALSE FALSE FALSE FALSE FALSE FALSE FALSE FALSE FALSE FALSE FALSE FALSE FALSE FALSE FALSE FALSE FALSE FALSE FALSE FALSE FALSE FALSE FALSE FALSE FALSE FALSE FALSE FALSE FALSE FALSE FALSE FALSE FALSE FALSE FALSE FALSE FALSE FALSE FALSE FALSE FALSE FALSE FALSE FALSE FALSE FALSE FALSE FALSE FALSE FALSE FALSE
c Fair::ca!0@1#1 10 FALSE FALSE FALSE FALSE FALSE FALSE FALSE
c Fair::cb!0@1#4 114 FALSE FALSE FALSE FALSE FALSE FALSE FALSE
c main::1::p2!0@1#2 44 45 46 47 48 49 50 51 52 53 54 55 56 57 58 59 60 61 62 63 64 65 66 67 68 69 70 71 72 73 74 75
c main::$tmp::return_value___VERIFIER_nondet_bool!0@1#2 6 FALSE FALSE FALSE FALSE FALSE FALSE FALSE
c Fair::count!0@1#4 -91 100 102 104 106 105 FALSE FALSE
c symex::nondet7 44 45 46 47 48 49 50 51 52 53 54 55 56 57 58 59 60 61 62 63 64 65 66 67 68 69 70 71 72 73 74 75
c main::1::p1!0@1#2 12 13 14 15 16 17 18 19 20 21 22 23 24 25 26 27 28 29 30 31 32 33 34 35 36 37 38 39 40 41 42 43
c Fair::ca!0@1#2 80 FALSE FALSE FALSE FALSE FALSE FALSE FALSE
c main::$tmp::return_value___VERIFIER_nondet_float!0@1#2 12 13 14 15 16 17 18 19 20 21 22 23 24 25 26 27 28 29 30 31 32 33 34 35 36 37 38 39 40 41 42 43
c symex::args::4 523 524 525 526 527 528 529 530 531 532 533 534 535 536 537 538 539 540 541 542 543 544 545 546 547 548 549 550 551 552 553 554
c symex::nondet6 12 13 14 15 16 17 18 19 20 21 22 23 24 25 26 27 28 29 30 31 32 33 34 35 36 37 38 39 40 41 42 43
c __CPROVER_dead_object#1 FALSE FALSE FALSE FALSE FALSE FALSE FALSE FALSE FALSE FALSE FALSE FALSE FALSE FALSE FALSE FALSE FALSE FALSE FALSE FALSE FALSE FALSE FALSE FALSE FALSE FALSE FALSE FALSE FALSE FALSE FALSE FALSE FALSE FALSE FALSE FALSE FALSE FALSE FALSE FALSE FALSE FALSE FALSE FALSE FALSE FALSE FALSE FALSE FALSE FALSE FALSE FALSE FALSE FALSE FALSE FALSE FALSE FALSE FALSE FALSE FALSE FALSE FALSE FALSE
c Fair::count!0@1#1 9 8 7 6 FALSE FALSE FALSE FALSE
c main::1::cb!0@1#2 11 FALSE FALSE FALSE FALSE FALSE FALSE FALSE
c main::$tmp::return_value___VERIFIER_nondet_bool$3!0@1#1 171 172 173 174 175 176 177 178
c goto_symex::return_value::Fair!0#1..ca 115 FALSE FALSE FALSE FALSE FALSE FALSE FALSE
c main::$tmp::return_value___VERIFIER_nondet_bool$4!0@1#2 11 FALSE FALSE FALSE FALSE FALSE FALSE FALSE
c main::$tmp::return_value___VERIFIER_nondet_bool$1!0@1#2 8 FALSE FALSE FALSE FALSE FALSE FALSE FALSE
c Fair::count!0@1#5 108 109 110 111 112 113 FALSE FALSE
c main::$tmp::return_value___VERIFIER_nondet_float$0!0@1#2 44 45 46 47 48 49 50 51 52 53 54 55 56 57 58 59 60 61 62 63 64 65 66 67 68 69 70 71 72 73 74 75
c main::1::out!0@1#2..ca 115 FALSE FALSE FALSE FALSE FALSE FALSE FALSE
c main::1::cb!0@1#1 179 180 181 182 183 184 185 186
c main::1::out!0@1#2..count 116 117 118 119 120 121 FALSE FALSE
